# Instance RC205 - 70 dynamic requests - 30 static requests
Dyn   Stat
70    30
ID    RD
2     -1
3     -1
6     -1
8     -1
14    -1
20    -1
24    -1
28    -1
30    -1
33    -1
34    -1
35    -1
36    -1
40    -1
43    -1
53    -1
65    -1
66    -1
72    -1
74    -1
75    -1
82    -1
84    -1
86    -1
87    -1
92    -1
94    -1
95    -1
98    -1
100   -1
1     260
4     351
5     18
7     100
9     138
10    158
11    138
12    14
13    346
15    53
16    186
17    219
18    255
19    92
21    25
22    24
23    106
25    104
26    37
27    15
29    10
31    28
32    82
37    87
38    93
39    44
41    105
42    6
44    95
45    30
46    252
47    30
48    106
49    302
50    312
51    182
52    4
54    158
55    273
56    492
57    298
58    39
59    9
60    544
61    152
62    195
63    25
64    134
67    177
68    91
69    4
70    319
71    93
73    140
76    177
77    588
78    77
79    252
80    432
81    113
83    11
85    141
88    69
89    132
90    21
91    190
93    551
96    275
97    280
99    111
